generated by phonopy
   2.87
     1.00000000000000    0.0000000000000000    0.0000000000000000
     0.0000000000000000    1.00000000000000    0.0000000000000000
     0.0000000000000000    0.0000000000000000    1.0
Fe
2
Direct
  0.0000000000000000  0.0000000000000000  0.0000000000000000
  0.5000000000000000  0.5000000000000000  0.5000000000000000
