Fe4
1.0
        3.6456999779         0.0000000000         0.0000000000
        0.0000000000         3.6456999779         0.0000000000
        0.0000000000         0.0000000000         3.6456999779
   Fe
    4
Direct
     0.000000000         0.000000000         0.000000000
    -0.000000000         0.500000000         0.500000000
     0.500000000        -0.000000000         0.500000000
     0.500000000         0.500000000         0.000000000
