generated by phonopy
1.0
       36.4570007324         0.0000000000         0.0000000000
        0.0000000000        36.4570007324         0.0000000000
        0.0000000000         0.0000000000        36.4570007324
   Fe
 4000
Cartesian
     0.000000000         0.000000000         0.000000000
     3.645700216         0.000000000         0.000000000
     7.291400433         0.000000000         0.000000000
    10.937100410         0.000000000         0.000000000
    14.582800865         0.000000000         0.000000000
    18.228500366         0.000000000         0.000000000
    21.874200821         0.000000000         0.000000000
    25.519899368         0.000000000         0.000000000
    29.165601730         0.000000000         0.000000000
    32.811298370         0.000000000         0.000000000
     0.000000000         3.645700216         0.000000000
     3.645700216         3.645700216         0.000000000
     7.291400433         3.645700216         0.000000000
    10.937100410         3.645700216         0.000000000
    14.582800865         3.645700216         0.000000000
    18.228500366         3.645700216         0.000000000
    21.874200821         3.645700216         0.000000000
    25.519899368         3.645700216         0.000000000
    29.165601730         3.645700216         0.000000000
    32.811298370         3.645700216         0.000000000
     0.000000000         7.291400433         0.000000000
     3.645700216         7.291400433         0.000000000
     7.291400433         7.291400433         0.000000000
    10.937100410         7.291400433         0.000000000
    14.582800865         7.291400433         0.000000000
    18.228500366         7.291400433         0.000000000
    21.874200821         7.291400433         0.000000000
    25.519899368         7.291400433         0.000000000
    29.165601730         7.291400433         0.000000000
    32.811298370         7.291400433         0.000000000
     0.000000000        10.937100410         0.000000000
     3.645700216        10.937100410         0.000000000
     7.291400433        10.937100410         0.000000000
    10.937100410        10.937100410         0.000000000
    14.582800865        10.937100410         0.000000000
    18.228500366        10.937100410         0.000000000
    21.874200821        10.937100410         0.000000000
    25.519899368        10.937100410         0.000000000
    29.165601730        10.937100410         0.000000000
    32.811298370        10.937100410         0.000000000
     0.000000000        14.582800865         0.000000000
     3.645700216        14.582800865         0.000000000
     7.291400433        14.582800865         0.000000000
    10.937100410        14.582800865         0.000000000
    14.582800865        14.582800865         0.000000000
    18.228500366        14.582800865         0.000000000
    21.874200821        14.582800865         0.000000000
    25.519899368        14.582800865         0.000000000
    29.165601730        14.582800865         0.000000000
    32.811298370        14.582800865         0.000000000
     0.000000000        18.228500366         0.000000000
     3.645700216        18.228500366         0.000000000
     7.291400433        18.228500366         0.000000000
    10.937100410        18.228500366         0.000000000
    14.582800865        18.228500366         0.000000000
    18.228500366        18.228500366         0.000000000
    21.874200821        18.228500366         0.000000000
    25.519899368        18.228500366         0.000000000
    29.165601730        18.228500366         0.000000000
    32.811298370        18.228500366         0.000000000
     0.000000000        21.874200821         0.000000000
     3.645700216        21.874200821         0.000000000
     7.291400433        21.874200821         0.000000000
    10.937100410        21.874200821         0.000000000
    14.582800865        21.874200821         0.000000000
    18.228500366        21.874200821         0.000000000
    21.874200821        21.874200821         0.000000000
    25.519899368        21.874200821         0.000000000
    29.165601730        21.874200821         0.000000000
    32.811298370        21.874200821         0.000000000
     0.000000000        25.519899368         0.000000000
     3.645700216        25.519899368         0.000000000
     7.291400433        25.519899368         0.000000000
    10.937100410        25.519899368         0.000000000
    14.582800865        25.519899368         0.000000000
    18.228500366        25.519899368         0.000000000
    21.874200821        25.519899368         0.000000000
    25.519899368        25.519899368         0.000000000
    29.165601730        25.519899368         0.000000000
    32.811298370        25.519899368         0.000000000
     0.000000000        29.165601730         0.000000000
     3.645700216        29.165601730         0.000000000
     7.291400433        29.165601730         0.000000000
    10.937100410        29.165601730         0.000000000
    14.582800865        29.165601730         0.000000000
    18.228500366        29.165601730         0.000000000
    21.874200821        29.165601730         0.000000000
    25.519899368        29.165601730         0.000000000
    29.165601730        29.165601730         0.000000000
    32.811298370        29.165601730         0.000000000
     0.000000000        32.811298370         0.000000000
     3.645700216        32.811298370         0.000000000
     7.291400433        32.811298370         0.000000000
    10.937100410        32.811298370         0.000000000
    14.582800865        32.811298370         0.000000000
    18.228500366        32.811298370         0.000000000
    21.874200821        32.811298370         0.000000000
    25.519899368        32.811298370         0.000000000
    29.165601730        32.811298370         0.000000000
    32.811298370        32.811298370         0.000000000
     0.000000000         0.000000000         3.645700216
     3.645700216         0.000000000         3.645700216
     7.291400433         0.000000000         3.645700216
    10.937100410         0.000000000         3.645700216
    14.582800865         0.000000000         3.645700216
    18.228500366         0.000000000         3.645700216
    21.874200821         0.000000000         3.645700216
    25.519899368         0.000000000         3.645700216
    29.165601730         0.000000000         3.645700216
    32.811298370         0.000000000         3.645700216
     0.000000000         3.645700216         3.645700216
     3.645700216         3.645700216         3.645700216
     7.291400433         3.645700216         3.645700216
    10.937100410         3.645700216         3.645700216
    14.582800865         3.645700216         3.645700216
    18.228500366         3.645700216         3.645700216
    21.874200821         3.645700216         3.645700216
    25.519899368         3.645700216         3.645700216
    29.165601730         3.645700216         3.645700216
    32.811298370         3.645700216         3.645700216
     0.000000000         7.291400433         3.645700216
     3.645700216         7.291400433         3.645700216
     7.291400433         7.291400433         3.645700216
    10.937100410         7.291400433         3.645700216
    14.582800865         7.291400433         3.645700216
    18.228500366         7.291400433         3.645700216
    21.874200821         7.291400433         3.645700216
    25.519899368         7.291400433         3.645700216
    29.165601730         7.291400433         3.645700216
    32.811298370         7.291400433         3.645700216
     0.000000000        10.937100410         3.645700216
     3.645700216        10.937100410         3.645700216
     7.291400433        10.937100410         3.645700216
    10.937100410        10.937100410         3.645700216
    14.582800865        10.937100410         3.645700216
    18.228500366        10.937100410         3.645700216
    21.874200821        10.937100410         3.645700216
    25.519899368        10.937100410         3.645700216
    29.165601730        10.937100410         3.645700216
    32.811298370        10.937100410         3.645700216
     0.000000000        14.582800865         3.645700216
     3.645700216        14.582800865         3.645700216
     7.291400433        14.582800865         3.645700216
    10.937100410        14.582800865         3.645700216
    14.582800865        14.582800865         3.645700216
    18.228500366        14.582800865         3.645700216
    21.874200821        14.582800865         3.645700216
    25.519899368        14.582800865         3.645700216
    29.165601730        14.582800865         3.645700216
    32.811298370        14.582800865         3.645700216
     0.000000000        18.228500366         3.645700216
     3.645700216        18.228500366         3.645700216
     7.291400433        18.228500366         3.645700216
    10.937100410        18.228500366         3.645700216
    14.582800865        18.228500366         3.645700216
    18.228500366        18.228500366         3.645700216
    21.874200821        18.228500366         3.645700216
    25.519899368        18.228500366         3.645700216
    29.165601730        18.228500366         3.645700216
    32.811298370        18.228500366         3.645700216
     0.000000000        21.874200821         3.645700216
     3.645700216        21.874200821         3.645700216
     7.291400433        21.874200821         3.645700216
    10.937100410        21.874200821         3.645700216
    14.582800865        21.874200821         3.645700216
    18.228500366        21.874200821         3.645700216
    21.874200821        21.874200821         3.645700216
    25.519899368        21.874200821         3.645700216
    29.165601730        21.874200821         3.645700216
    32.811298370        21.874200821         3.645700216
     0.000000000        25.519899368         3.645700216
     3.645700216        25.519899368         3.645700216
     7.291400433        25.519899368         3.645700216
    10.937100410        25.519899368         3.645700216
    14.582800865        25.519899368         3.645700216
    18.228500366        25.519899368         3.645700216
    21.874200821        25.519899368         3.645700216
    25.519899368        25.519899368         3.645700216
    29.165601730        25.519899368         3.645700216
    32.811298370        25.519899368         3.645700216
     0.000000000        29.165601730         3.645700216
     3.645700216        29.165601730         3.645700216
     7.291400433        29.165601730         3.645700216
    10.937100410        29.165601730         3.645700216
    14.582800865        29.165601730         3.645700216
    18.228500366        29.165601730         3.645700216
    21.874200821        29.165601730         3.645700216
    25.519899368        29.165601730         3.645700216
    29.165601730        29.165601730         3.645700216
    32.811298370        29.165601730         3.645700216
     0.000000000        32.811298370         3.645700216
     3.645700216        32.811298370         3.645700216
     7.291400433        32.811298370         3.645700216
    10.937100410        32.811298370         3.645700216
    14.582800865        32.811298370         3.645700216
    18.228500366        32.811298370         3.645700216
    21.874200821        32.811298370         3.645700216
    25.519899368        32.811298370         3.645700216
    29.165601730        32.811298370         3.645700216
    32.811298370        32.811298370         3.645700216
     0.000000000         0.000000000         7.291400433
     3.645700216         0.000000000         7.291400433
     7.291400433         0.000000000         7.291400433
    10.937100410         0.000000000         7.291400433
    14.582800865         0.000000000         7.291400433
    18.228500366         0.000000000         7.291400433
    21.874200821         0.000000000         7.291400433
    25.519899368         0.000000000         7.291400433
    29.165601730         0.000000000         7.291400433
    32.811298370         0.000000000         7.291400433
     0.000000000         3.645700216         7.291400433
     3.645700216         3.645700216         7.291400433
     7.291400433         3.645700216         7.291400433
    10.937100410         3.645700216         7.291400433
    14.582800865         3.645700216         7.291400433
    18.228500366         3.645700216         7.291400433
    21.874200821         3.645700216         7.291400433
    25.519899368         3.645700216         7.291400433
    29.165601730         3.645700216         7.291400433
    32.811298370         3.645700216         7.291400433
     0.000000000         7.291400433         7.291400433
     3.645700216         7.291400433         7.291400433
     7.291400433         7.291400433         7.291400433
    10.937100410         7.291400433         7.291400433
    14.582800865         7.291400433         7.291400433
    18.228500366         7.291400433         7.291400433
    21.874200821         7.291400433         7.291400433
    25.519899368         7.291400433         7.291400433
    29.165601730         7.291400433         7.291400433
    32.811298370         7.291400433         7.291400433
     0.000000000        10.937100410         7.291400433
     3.645700216        10.937100410         7.291400433
     7.291400433        10.937100410         7.291400433
    10.937100410        10.937100410         7.291400433
    14.582800865        10.937100410         7.291400433
    18.228500366        10.937100410         7.291400433
    21.874200821        10.937100410         7.291400433
    25.519899368        10.937100410         7.291400433
    29.165601730        10.937100410         7.291400433
    32.811298370        10.937100410         7.291400433
     0.000000000        14.582800865         7.291400433
     3.645700216        14.582800865         7.291400433
     7.291400433        14.582800865         7.291400433
    10.937100410        14.582800865         7.291400433
    14.582800865        14.582800865         7.291400433
    18.228500366        14.582800865         7.291400433
    21.874200821        14.582800865         7.291400433
    25.519899368        14.582800865         7.291400433
    29.165601730        14.582800865         7.291400433
    32.811298370        14.582800865         7.291400433
     0.000000000        18.228500366         7.291400433
     3.645700216        18.228500366         7.291400433
     7.291400433        18.228500366         7.291400433
    10.937100410        18.228500366         7.291400433
    14.582800865        18.228500366         7.291400433
    18.228500366        18.228500366         7.291400433
    21.874200821        18.228500366         7.291400433
    25.519899368        18.228500366         7.291400433
    29.165601730        18.228500366         7.291400433
    32.811298370        18.228500366         7.291400433
     0.000000000        21.874200821         7.291400433
     3.645700216        21.874200821         7.291400433
     7.291400433        21.874200821         7.291400433
    10.937100410        21.874200821         7.291400433
    14.582800865        21.874200821         7.291400433
    18.228500366        21.874200821         7.291400433
    21.874200821        21.874200821         7.291400433
    25.519899368        21.874200821         7.291400433
    29.165601730        21.874200821         7.291400433
    32.811298370        21.874200821         7.291400433
     0.000000000        25.519899368         7.291400433
     3.645700216        25.519899368         7.291400433
     7.291400433        25.519899368         7.291400433
    10.937100410        25.519899368         7.291400433
    14.582800865        25.519899368         7.291400433
    18.228500366        25.519899368         7.291400433
    21.874200821        25.519899368         7.291400433
    25.519899368        25.519899368         7.291400433
    29.165601730        25.519899368         7.291400433
    32.811298370        25.519899368         7.291400433
     0.000000000        29.165601730         7.291400433
     3.645700216        29.165601730         7.291400433
     7.291400433        29.165601730         7.291400433
    10.937100410        29.165601730         7.291400433
    14.582800865        29.165601730         7.291400433
    18.228500366        29.165601730         7.291400433
    21.874200821        29.165601730         7.291400433
    25.519899368        29.165601730         7.291400433
    29.165601730        29.165601730         7.291400433
    32.811298370        29.165601730         7.291400433
     0.000000000        32.811298370         7.291400433
     3.645700216        32.811298370         7.291400433
     7.291400433        32.811298370         7.291400433
    10.937100410        32.811298370         7.291400433
    14.582800865        32.811298370         7.291400433
    18.228500366        32.811298370         7.291400433
    21.874200821        32.811298370         7.291400433
    25.519899368        32.811298370         7.291400433
    29.165601730        32.811298370         7.291400433
    32.811298370        32.811298370         7.291400433
     0.000000000         0.000000000        10.937100410
     3.645700216         0.000000000        10.937100410
     7.291400433         0.000000000        10.937100410
    10.937100410         0.000000000        10.937100410
    14.582800865         0.000000000        10.937100410
    18.228500366         0.000000000        10.937100410
    21.874200821         0.000000000        10.937100410
    25.519899368         0.000000000        10.937100410
    29.165601730         0.000000000        10.937100410
    32.811298370         0.000000000        10.937100410
     0.000000000         3.645700216        10.937100410
     3.645700216         3.645700216        10.937100410
     7.291400433         3.645700216        10.937100410
    10.937100410         3.645700216        10.937100410
    14.582800865         3.645700216        10.937100410
    18.228500366         3.645700216        10.937100410
    21.874200821         3.645700216        10.937100410
    25.519899368         3.645700216        10.937100410
    29.165601730         3.645700216        10.937100410
    32.811298370         3.645700216        10.937100410
     0.000000000         7.291400433        10.937100410
     3.645700216         7.291400433        10.937100410
     7.291400433         7.291400433        10.937100410
    10.937100410         7.291400433        10.937100410
    14.582800865         7.291400433        10.937100410
    18.228500366         7.291400433        10.937100410
    21.874200821         7.291400433        10.937100410
    25.519899368         7.291400433        10.937100410
    29.165601730         7.291400433        10.937100410
    32.811298370         7.291400433        10.937100410
     0.000000000        10.937100410        10.937100410
     3.645700216        10.937100410        10.937100410
     7.291400433        10.937100410        10.937100410
    10.937100410        10.937100410        10.937100410
    14.582800865        10.937100410        10.937100410
    18.228500366        10.937100410        10.937100410
    21.874200821        10.937100410        10.937100410
    25.519899368        10.937100410        10.937100410
    29.165601730        10.937100410        10.937100410
    32.811298370        10.937100410        10.937100410
     0.000000000        14.582800865        10.937100410
     3.645700216        14.582800865        10.937100410
     7.291400433        14.582800865        10.937100410
    10.937100410        14.582800865        10.937100410
    14.582800865        14.582800865        10.937100410
    18.228500366        14.582800865        10.937100410
    21.874200821        14.582800865        10.937100410
    25.519899368        14.582800865        10.937100410
    29.165601730        14.582800865        10.937100410
    32.811298370        14.582800865        10.937100410
     0.000000000        18.228500366        10.937100410
     3.645700216        18.228500366        10.937100410
     7.291400433        18.228500366        10.937100410
    10.937100410        18.228500366        10.937100410
    14.582800865        18.228500366        10.937100410
    18.228500366        18.228500366        10.937100410
    21.874200821        18.228500366        10.937100410
    25.519899368        18.228500366        10.937100410
    29.165601730        18.228500366        10.937100410
    32.811298370        18.228500366        10.937100410
     0.000000000        21.874200821        10.937100410
     3.645700216        21.874200821        10.937100410
     7.291400433        21.874200821        10.937100410
    10.937100410        21.874200821        10.937100410
    14.582800865        21.874200821        10.937100410
    18.228500366        21.874200821        10.937100410
    21.874200821        21.874200821        10.937100410
    25.519899368        21.874200821        10.937100410
    29.165601730        21.874200821        10.937100410
    32.811298370        21.874200821        10.937100410
     0.000000000        25.519899368        10.937100410
     3.645700216        25.519899368        10.937100410
     7.291400433        25.519899368        10.937100410
    10.937100410        25.519899368        10.937100410
    14.582800865        25.519899368        10.937100410
    18.228500366        25.519899368        10.937100410
    21.874200821        25.519899368        10.937100410
    25.519899368        25.519899368        10.937100410
    29.165601730        25.519899368        10.937100410
    32.811298370        25.519899368        10.937100410
     0.000000000        29.165601730        10.937100410
     3.645700216        29.165601730        10.937100410
     7.291400433        29.165601730        10.937100410
    10.937100410        29.165601730        10.937100410
    14.582800865        29.165601730        10.937100410
    18.228500366        29.165601730        10.937100410
    21.874200821        29.165601730        10.937100410
    25.519899368        29.165601730        10.937100410
    29.165601730        29.165601730        10.937100410
    32.811298370        29.165601730        10.937100410
     0.000000000        32.811298370        10.937100410
     3.645700216        32.811298370        10.937100410
     7.291400433        32.811298370        10.937100410
    10.937100410        32.811298370        10.937100410
    14.582800865        32.811298370        10.937100410
    18.228500366        32.811298370        10.937100410
    21.874200821        32.811298370        10.937100410
    25.519899368        32.811298370        10.937100410
    29.165601730        32.811298370        10.937100410
    32.811298370        32.811298370        10.937100410
     0.000000000         0.000000000        14.582800865
     3.645700216         0.000000000        14.582800865
     7.291400433         0.000000000        14.582800865
    10.937100410         0.000000000        14.582800865
    14.582800865         0.000000000        14.582800865
    18.228500366         0.000000000        14.582800865
    21.874200821         0.000000000        14.582800865
    25.519899368         0.000000000        14.582800865
    29.165601730         0.000000000        14.582800865
    32.811298370         0.000000000        14.582800865
     0.000000000         3.645700216        14.582800865
     3.645700216         3.645700216        14.582800865
     7.291400433         3.645700216        14.582800865
    10.937100410         3.645700216        14.582800865
    14.582800865         3.645700216        14.582800865
    18.228500366         3.645700216        14.582800865
    21.874200821         3.645700216        14.582800865
    25.519899368         3.645700216        14.582800865
    29.165601730         3.645700216        14.582800865
    32.811298370         3.645700216        14.582800865
     0.000000000         7.291400433        14.582800865
     3.645700216         7.291400433        14.582800865
     7.291400433         7.291400433        14.582800865
    10.937100410         7.291400433        14.582800865
    14.582800865         7.291400433        14.582800865
    18.228500366         7.291400433        14.582800865
    21.874200821         7.291400433        14.582800865
    25.519899368         7.291400433        14.582800865
    29.165601730         7.291400433        14.582800865
    32.811298370         7.291400433        14.582800865
     0.000000000        10.937100410        14.582800865
     3.645700216        10.937100410        14.582800865
     7.291400433        10.937100410        14.582800865
    10.937100410        10.937100410        14.582800865
    14.582800865        10.937100410        14.582800865
    18.228500366        10.937100410        14.582800865
    21.874200821        10.937100410        14.582800865
    25.519899368        10.937100410        14.582800865
    29.165601730        10.937100410        14.582800865
    32.811298370        10.937100410        14.582800865
     0.000000000        14.582800865        14.582800865
     3.645700216        14.582800865        14.582800865
     7.291400433        14.582800865        14.582800865
    10.937100410        14.582800865        14.582800865
    14.582800865        14.582800865        14.582800865
    18.228500366        14.582800865        14.582800865
    21.874200821        14.582800865        14.582800865
    25.519899368        14.582800865        14.582800865
    29.165601730        14.582800865        14.582800865
    32.811298370        14.582800865        14.582800865
     0.000000000        18.228500366        14.582800865
     3.645700216        18.228500366        14.582800865
     7.291400433        18.228500366        14.582800865
    10.937100410        18.228500366        14.582800865
    14.582800865        18.228500366        14.582800865
    18.228500366        18.228500366        14.582800865
    21.874200821        18.228500366        14.582800865
    25.519899368        18.228500366        14.582800865
    29.165601730        18.228500366        14.582800865
    32.811298370        18.228500366        14.582800865
     0.000000000        21.874200821        14.582800865
     3.645700216        21.874200821        14.582800865
     7.291400433        21.874200821        14.582800865
    10.937100410        21.874200821        14.582800865
    14.582800865        21.874200821        14.582800865
    18.228500366        21.874200821        14.582800865
    21.874200821        21.874200821        14.582800865
    25.519899368        21.874200821        14.582800865
    29.165601730        21.874200821        14.582800865
    32.811298370        21.874200821        14.582800865
     0.000000000        25.519899368        14.582800865
     3.645700216        25.519899368        14.582800865
     7.291400433        25.519899368        14.582800865
    10.937100410        25.519899368        14.582800865
    14.582800865        25.519899368        14.582800865
    18.228500366        25.519899368        14.582800865
    21.874200821        25.519899368        14.582800865
    25.519899368        25.519899368        14.582800865
    29.165601730        25.519899368        14.582800865
    32.811298370        25.519899368        14.582800865
     0.000000000        29.165601730        14.582800865
     3.645700216        29.165601730        14.582800865
     7.291400433        29.165601730        14.582800865
    10.937100410        29.165601730        14.582800865
    14.582800865        29.165601730        14.582800865
    18.228500366        29.165601730        14.582800865
    21.874200821        29.165601730        14.582800865
    25.519899368        29.165601730        14.582800865
    29.165601730        29.165601730        14.582800865
    32.811298370        29.165601730        14.582800865
     0.000000000        32.811298370        14.582800865
     3.645700216        32.811298370        14.582800865
     7.291400433        32.811298370        14.582800865
    10.937100410        32.811298370        14.582800865
    14.582800865        32.811298370        14.582800865
    18.228500366        32.811298370        14.582800865
    21.874200821        32.811298370        14.582800865
    25.519899368        32.811298370        14.582800865
    29.165601730        32.811298370        14.582800865
    32.811298370        32.811298370        14.582800865
     0.000000000         0.000000000        18.228500366
     3.645700216         0.000000000        18.228500366
     7.291400433         0.000000000        18.228500366
    10.937100410         0.000000000        18.228500366
    14.582800865         0.000000000        18.228500366
    18.228500366         0.000000000        18.228500366
    21.874200821         0.000000000        18.228500366
    25.519899368         0.000000000        18.228500366
    29.165601730         0.000000000        18.228500366
    32.811298370         0.000000000        18.228500366
     0.000000000         3.645700216        18.228500366
     3.645700216         3.645700216        18.228500366
     7.291400433         3.645700216        18.228500366
    10.937100410         3.645700216        18.228500366
    14.582800865         3.645700216        18.228500366
    18.228500366         3.645700216        18.228500366
    21.874200821         3.645700216        18.228500366
    25.519899368         3.645700216        18.228500366
    29.165601730         3.645700216        18.228500366
    32.811298370         3.645700216        18.228500366
     0.000000000         7.291400433        18.228500366
     3.645700216         7.291400433        18.228500366